c preprocessed version of SymplecticDualPolarGraph_4_4, 85 vertices, 850 edges
p td 85 850
0 1
0 8
0 12
0 13
0 18
0 23
0 34
0 45
0 56
0 59
0 62
0 67
0 71
0 72
0 74
0 75
0 76
0 77
0 78
0 79
1 4
1 5
1 9
1 12
1 14
1 15
1 23
1 34
1 42
1 50
1 58
1 60
1 61
1 63
1 64
1 65
1 70
1 73
1 80
2 3
2 4
2 9
2 10
2 11
2 13
2 24
2 38
2 40
2 43
2 44
2 46
2 50
2 52
2 70
2 74
2 76
3 4
3 14
3 16
3 17
3 18
3 19
3 29
3 33
3 53
3 54
3 55
3 57
3 58
3 59
3 60
3 77
4 20
4 22
4 27
4 30
4 32
4 36
4 39
4 48
4 51
4 62
4 63
4 64
4 65
4 71
4 75
5 6
5 7
5 8
5 9
5 14
5 15
5 28
5 32
5 39
5 46
5 49
5 51
5 52
5 53
5 55
5 59
5 74
6 7
6 8
6 11
6 18
6 19
6 20
6 21
6 27
6 38
6 40
6 57
6 60
6 62
6 64
6 80
6 82
7 8
7 13
7 16
7 22
7 24
7 25
7 29
7 33
7 43
7 48
7 65
7 70
7 71
7 73
7 83
8 10
8 17
8 30
8 35
8 36
8 41
8 44
8 50
8 54
8 58
8 63
8 75
8 76
8 77
8 81
9 10
9 11
9 13
9 14
9 15
9 20
9 25
9 29
9 30
9 31
9 41
9 48
9 57
9 68
9 72
9 77
10 11
10 13
10 17
10 19
10 26
10 27
10 28
10 39
10 42
10 53
10 63
10 69
10 71
10 80
10 81
11 13
11 18
11 22
11 32
11 33
11 35
11 37
11 47
11 55
11 58
11 64
11 73
11 75
11 82
12 2
12 6
12 17
12 19
12 20
12 21
12 23
12 30
12 34
12 37
12 43
12 44
12 46
12 47
12 48
12 49
12 53
12 83
13 16
13 21
13 36
13 49
13 51
13 54
13 59
13 60
13 61
13 62
13 65
13 66
13 79
13 83
14 15
14 16
14 17
14 18
14 21
14 22
14 27
14 35
14 36
14 37
14 38
14 43
14 69
14 76
14 79
15 19
15 24
15 26
15 33
15 40
15 44
15 47
15 54
15 62
15 66
15 71
15 75
15 81
15 82
15 83
16 17
16 18
16 20
16 26
16 31
16 39
16 40
16 41
16 46
16 50
16 65
16 75
16 80
16 83
17 18
17 24
17 32
17 47
17 48
17 49
17 52
17 61
17 62
17 63
17 68
17 73
17 81
18 25
18 28
18 30
18 42
18 44
18 51
18 64
18 66
18 70
18 71
18 72
18 74
18 82
19 20
19 21
19 24
19 29
19 35
19 39
19 42
19 52
19 58
19 59
19 65
19 66
19 72
19 75
20 21
20 25
20 26
20 32
20 36
20 50
20 55
20 68
20 70
20 71
20 77
20 79
20 81
21 22
21 28
21 31
21 33
21 41
21 51
21 54
21 61
21 63
21 69
21 73
21 74
21 76
22 24
22 25
22 30
22 39
22 46
22 47
22 58
22 60
22 62
22 69
22 72
22 76
22 81
23 3
23 7
23 10
23 22
23 24
23 25
23 26
23 27
23 28
23 31
23 34
23 36
23 52
23 54
23 55
23 57
23 82
24 25
24 32
24 38
24 41
24 50
24 53
24 61
24 64
24 66
24 74
24 75
24 79
25 35
25 37
25 40
25 42
25 44
25 49
25 51
25 59
25 63
25 68
25 77
25 80
26 27
26 28
26 29
26 33
26 37
26 44
26 49
26 50
26 61
26 62
26 64
26 72
26 76
27 28
27 35
27 40
27 43
27 48
27 51
27 58
27 60
27 68
27 74
27 75
27 79
27 83
28 30
28 32
28 38
28 41
28 46
28 47
28 59
28 65
28 66
28 70
28 73
28 77
29 30
29 31
29 38
29 43
29 49
29 51
29 58
29 59
29 64
29 71
29 73
29 76
29 81
30 31
30 35
30 37
30 39
30 50
30 53
30 54
30 62
30 66
30 70
30 83
31 33
31 36
31 42
31 46
31 47
31 52
31 63
31 74
31 75
31 79
31 80
31 82
32 33
32 35
32 36
32 42
32 46
32 57
32 59
32 61
32 71
32 76
32 83
33 35
33 44
33 48
33 53
33 60
33 62
33 63
33 70
33 74
33 77
34 11
34 16
34 29
34 32
34 33
34 35
34 38
34 39
34 40
34 41
34 51
34 66
34 68
34 69
34 81
34 84
35 43
35 49
35 50
35 52
35 54
35 65
35 72
35 79
35 80
36 37
36 38
36 41
36 44
36 49
36 52
36 58
36 60
36 66
36 71
36 82
37 38
37 40
37 53
37 55
37 59
37 61
37 63
37 72
37 73
37 75
37 83
38 47
38 50
38 51
38 57
38 62
38 65
38 74
38 77
38 80
38 81
39 40
39 41
39 42
39 43
39 49
39 55
39 61
39 62
39 74
39 77
39 82
40 41
40 47
40 52
40 54
40 59
40 60
40 63
40 70
40 71
40 76
41 44
41 48
41 53
41 57
41 58
41 64
41 72
41 73
41 79
42 44
42 47
42 50
42 51
42 57
42 60
42 73
42 76
42 79
42 83
43 44
43 46
43 57
43 61
43 63
43 66
43 71
43 73
43 77
43 79
43 82
44 46
44 51
44 55
44 58
44 62
44 65
44 69
45 2
45 3
45 4
45 15
45 21
45 25
45 28
45 35
45 41
45 49
45 56
45 67
45 73
45 78
45 80
45 81
45 82
45 83
45 84
46 54
46 59
46 60
46 64
46 68
46 72
46 75
46 80
46 81
47 48
47 49
47 54
47 58
47 65
47 71
47 77
47 79
48 49
48 50
48 51
48 57
48 59
48 69
48 70
48 72
48 75
48 82
49 55
49 60
49 64
49 66
49 74
49 76
49 80
50 54
50 59
50 60
50 69
50 73
50 74
50 82
51 52
51 53
51 54
51 61
51 75
51 81
52 53
52 62
52 65
52 68
52 70
52 72
52 73
52 76
52 82
53 60
53 64
53 69
53 71
53 77
53 79
53 80
53 83
54 55
54 57
54 61
54 64
54 68
54 71
55 57
55 65
55 69
55 70
55 73
55 74
55 75
55 79
55 81
56 6
56 9
56 17
56 24
56 27
56 29
56 30
56 31
56 32
56 40
56 44
56 55
56 60
56 61
56 65
56 67
56 69
56 78
57 62
57 63
57 66
57 72
57 76
57 80
57 83
58 59
58 61
58 68
58 70
58 74
58 80
58 83
59 62
59 63
59 69
59 79
59 82
60 66
60 72
60 73
60 77
60 81
61 70
61 72
61 77
61 80
61 82
62 68
62 73
62 79
62 80
63 64
63 65
63 66
63 74
63 81
64 65
64 68
64 76
64 79
64 82
65 69
65 72
65 77
65 83
66 68
66 69
66 70
66 75
67 7
67 10
67 14
67 19
67 33
67 36
67 37
67 38
67 39
67 42
67 46
67 48
67 54
67 64
67 68
67 70
67 78
68 69
68 73
68 74
68 77
68 83
69 71
69 76
69 80
69 82
70 76
70 79
70 80
70 81
71 72
71 73
71 74
71 80
72 74
72 81
73 75
74 83
75 76
75 77
75 80
76 77
76 83
77 82
78 5
78 11
78 16
78 20
78 22
78 26
78 43
78 47
78 50
78 51
78 52
78 53
78 57
78 58
78 63
78 66
79 81
81 82
81 83
82 83
84 2
84 3
84 4
84 5
84 6
84 7
84 8
84 26
84 31
84 37
84 42
84 47
84 61
84 66
84 68
84 69
84 72
84 79
